src/asp/benchmarks/small5.lp
citta(foligno).
citta(citta_di_castello).
citta(magione).

richiesta(foligno, strade, 1251).
richiesta(foligno, fiumi, 733).
richiesta(foligno, scuole, 282).
richiesta(foligno, parchi, 250).
richiesta(foligno, energia, 3514).

richiesta(citta_di_castello, strade, 225).
richiesta(citta_di_castello, fiumi, 542).
richiesta(citta_di_castello, scuole, 1566).
richiesta(citta_di_castello, parchi, 50).
richiesta(citta_di_castello, energia, 418).

richiesta(magione, strade, 386).
richiesta(magione, fiumi, 126).
richiesta(magione, scuole, 633).
richiesta(magione, parchi, 1).
richiesta(magione, energia, 13).

