src/minizinc/benchmarks/small5.dzn
COMUNI = {
	gubbio,
	umbertide,
	magione,
};

NUMERO_COMUNI = 3;

ABITANTI_PER_COMUNE = [30, 16, 14];

STRADE_TRA_COMUNI = [|
	false, true, false |
	true, false, false |
	false, false, false |
|];

RICHIESTE = [|
	63, 5, 10, 225, 11 |
	62, 61, 58, 27, 75 |
	113, 30, 150, 41, 62 |
|];
